178	32	4	84	
10	10	10	10

0	0	0	0	0	0	7	1	3	6	7	9	10	12
1	1	1	1	0	5	1	2
2	5	3	3	0	8	4	22	17	8	4
3	0	7	3	1	4	4	23	22	21	5
4	2	6	0	4	9	2	21	5
5	6	0	6	4	9	2	19	11
6	6	0	3	3	10	2	14	8
7	0	6	7	6	7	2	21	13
8	0	3	2	1	3	4	30	21	19	15
9	2	2	0	3	9	4	30	21	19	15
10	5	4	0	2	8	2	19	14
11	0	4	3	9	3	1	13
12	3	4	2	0	4	1	13
13	9	0	3	6	4	1	14
14	5	4	7	0	6	2	30	15
15	0	6	2	3	1	4	29	28	25	16
16	5	3	0	4	3	3	27	26	18
17	2	0	5	5	8	1	19
18	0	2	3	6	10	1	20
19	6	3	6	0	2	1	20
20	5	3	4	0	8	1	24
21	3	4	0	2	1	1	25
22	3	0	4	2	1	1	25
23	1	4	6	0	7	1	24
24	4	3	0	6	8	1	31
25	4	5	3	0	3	1	31
26	4	5	6	0	5	1	31
27	4	4	0	5	10	1	31
28	3	5	3	0	10	1	31
29	0	2	5	4	5	1	31
30	0	7	5	4	7	1	31
31	0	0	0	0	0	0
